; benchmark generated from python API
(set-info :status unknown)
(declare-fun cell_1_7 () Int)
(declare-fun cell_2_4 () Int)
(declare-fun cell_3_2 () Int)
(declare-fun cell_4_8 () Int)
(declare-fun cell_5_3 () Int)
(declare-fun cell_6_6 () Int)
(declare-fun cell_1_1 () Int)
(declare-fun cell_2_1 () Int)
(declare-fun cell_3_1 () Int)
(declare-fun cell_4_1 () Int)
(declare-fun cell_5_1 () Int)
(declare-fun cell_6_1 () Int)
(declare-fun cell_7_1 () Int)
(declare-fun cell_8_1 () Int)
(declare-fun cell_9_1 () Int)
(declare-fun cell_1_2 () Int)
(declare-fun cell_2_2 () Int)
(declare-fun cell_4_2 () Int)
(declare-fun cell_5_2 () Int)
(declare-fun cell_6_2 () Int)
(declare-fun cell_7_2 () Int)
(declare-fun cell_8_2 () Int)
(declare-fun cell_9_2 () Int)
(declare-fun cell_1_3 () Int)
(declare-fun cell_2_3 () Int)
(declare-fun cell_3_3 () Int)
(declare-fun cell_4_3 () Int)
(declare-fun cell_6_3 () Int)
(declare-fun cell_7_3 () Int)
(declare-fun cell_8_3 () Int)
(declare-fun cell_9_3 () Int)
(declare-fun cell_1_4 () Int)
(declare-fun cell_3_4 () Int)
(declare-fun cell_4_4 () Int)
(declare-fun cell_5_4 () Int)
(declare-fun cell_6_4 () Int)
(declare-fun cell_7_4 () Int)
(declare-fun cell_8_4 () Int)
(declare-fun cell_9_4 () Int)
(declare-fun cell_1_5 () Int)
(declare-fun cell_2_5 () Int)
(declare-fun cell_3_5 () Int)
(declare-fun cell_4_5 () Int)
(declare-fun cell_5_5 () Int)
(declare-fun cell_6_5 () Int)
(declare-fun cell_7_5 () Int)
(declare-fun cell_8_5 () Int)
(declare-fun cell_9_5 () Int)
(declare-fun cell_1_6 () Int)
(declare-fun cell_2_6 () Int)
(declare-fun cell_3_6 () Int)
(declare-fun cell_4_6 () Int)
(declare-fun cell_5_6 () Int)
(declare-fun cell_7_6 () Int)
(declare-fun cell_8_6 () Int)
(declare-fun cell_9_6 () Int)
(declare-fun cell_2_7 () Int)
(declare-fun cell_3_7 () Int)
(declare-fun cell_4_7 () Int)
(declare-fun cell_5_7 () Int)
(declare-fun cell_6_7 () Int)
(declare-fun cell_7_7 () Int)
(declare-fun cell_8_7 () Int)
(declare-fun cell_9_7 () Int)
(declare-fun cell_1_8 () Int)
(declare-fun cell_2_8 () Int)
(declare-fun cell_3_8 () Int)
(declare-fun cell_5_8 () Int)
(declare-fun cell_6_8 () Int)
(declare-fun cell_7_8 () Int)
(declare-fun cell_8_8 () Int)
(declare-fun cell_9_8 () Int)
(declare-fun cell_1_9 () Int)
(declare-fun cell_2_9 () Int)
(declare-fun cell_3_9 () Int)
(declare-fun cell_4_9 () Int)
(declare-fun cell_5_9 () Int)
(declare-fun cell_6_9 () Int)
(declare-fun cell_7_9 () Int)
(declare-fun cell_8_9 () Int)
(declare-fun cell_9_9 () Int)
(assert
 (= cell_1_7 1))
(assert
 (= cell_2_4 1))
(assert
 (= cell_3_2 1))
(assert
 (= cell_4_8 1))
(assert
 (= cell_5_3 1))
(assert
 (= cell_6_6 1))
(assert
 (let (($x1105 (= cell_1_1 9)))
 (let (($x713 (= cell_1_1 8)))
 (let (($x8689 (= cell_1_1 7)))
 (let (($x7886 (= cell_1_1 6)))
 (let (($x9841 (= cell_1_1 5)))
 (let (($x1061 (= cell_1_1 4)))
 (let (($x6478 (= cell_1_1 3)))
 (let (($x6858 (= cell_1_1 2)))
 (let (($x352 (= cell_1_1 1)))
 (or $x352 $x6858 $x6478 $x1061 $x9841 $x7886 $x8689 $x713 $x1105)))))))))))
(assert
 (let (($x5105 (= cell_2_1 9)))
 (let (($x7467 (= cell_2_1 8)))
 (let (($x3745 (= cell_2_1 7)))
 (let (($x8888 (= cell_2_1 6)))
 (let (($x10026 (= cell_2_1 5)))
 (let (($x5729 (= cell_2_1 4)))
 (let (($x5791 (= cell_2_1 3)))
 (let (($x9188 (= cell_2_1 2)))
 (let (($x7077 (= cell_2_1 1)))
 (or $x7077 $x9188 $x5791 $x5729 $x10026 $x8888 $x3745 $x7467 $x5105)))))))))))
(assert
 (let (($x2900 (= cell_3_1 9)))
 (let (($x2996 (= cell_3_1 8)))
 (let (($x8555 (= cell_3_1 7)))
 (let (($x2022 (= cell_3_1 6)))
 (let (($x9542 (= cell_3_1 5)))
 (let (($x7129 (= cell_3_1 4)))
 (let (($x593 (= cell_3_1 3)))
 (let (($x4459 (= cell_3_1 2)))
 (let (($x5236 (= cell_3_1 1)))
 (or $x5236 $x4459 $x593 $x7129 $x9542 $x2022 $x8555 $x2996 $x2900)))))))))))
(assert
 (let (($x1096 (= cell_4_1 9)))
 (let (($x5517 (= cell_4_1 8)))
 (let (($x4958 (= cell_4_1 7)))
 (let (($x5672 (= cell_4_1 6)))
 (let (($x8874 (= cell_4_1 5)))
 (let (($x6990 (= cell_4_1 4)))
 (let (($x2812 (= cell_4_1 3)))
 (let (($x2816 (= cell_4_1 2)))
 (let (($x3214 (= cell_4_1 1)))
 (or $x3214 $x2816 $x2812 $x6990 $x8874 $x5672 $x4958 $x5517 $x1096)))))))))))
(assert
 (let (($x6355 (= cell_5_1 9)))
 (let (($x3377 (= cell_5_1 8)))
 (let (($x4369 (= cell_5_1 7)))
 (let (($x8070 (= cell_5_1 6)))
 (let (($x1041 (= cell_5_1 5)))
 (let (($x5477 (= cell_5_1 4)))
 (let (($x7778 (= cell_5_1 3)))
 (let (($x10183 (= cell_5_1 2)))
 (let (($x3440 (= cell_5_1 1)))
 (or $x3440 $x10183 $x7778 $x5477 $x1041 $x8070 $x4369 $x3377 $x6355)))))))))))
(assert
 (let (($x6941 (= cell_6_1 9)))
 (let (($x65 (= cell_6_1 8)))
 (let (($x9590 (= cell_6_1 7)))
 (let (($x561 (= cell_6_1 6)))
 (let (($x8605 (= cell_6_1 5)))
 (let (($x4891 (= cell_6_1 4)))
 (let (($x1432 (= cell_6_1 3)))
 (let (($x5697 (= cell_6_1 2)))
 (let (($x3921 (= cell_6_1 1)))
 (or $x3921 $x5697 $x1432 $x4891 $x8605 $x561 $x9590 $x65 $x6941)))))))))))
(assert
 (or (= cell_7_1 1) (= cell_7_1 2) (= cell_7_1 3) (= cell_7_1 4) (= cell_7_1 5) (= cell_7_1 6) (= cell_7_1 7) (= cell_7_1 8) (= cell_7_1 9)))
(assert
 (or (= cell_8_1 1) (= cell_8_1 2) (= cell_8_1 3) (= cell_8_1 4) (= cell_8_1 5) (= cell_8_1 6) (= cell_8_1 7) (= cell_8_1 8) (= cell_8_1 9)))
(assert
 (or (= cell_9_1 1) (= cell_9_1 2) (= cell_9_1 3) (= cell_9_1 4) (= cell_9_1 5) (= cell_9_1 6) (= cell_9_1 7) (= cell_9_1 8) (= cell_9_1 9)))
(assert
 (let (($x1806 (= cell_1_2 9)))
 (let (($x5512 (= cell_1_2 8)))
 (let (($x6973 (= cell_1_2 7)))
 (let (($x6058 (= cell_1_2 6)))
 (let (($x249 (= cell_1_2 5)))
 (let (($x6138 (= cell_1_2 4)))
 (let (($x3503 (= cell_1_2 3)))
 (let (($x8143 (= cell_1_2 2)))
 (let (($x2178 (= cell_1_2 1)))
 (or $x2178 $x8143 $x3503 $x6138 $x249 $x6058 $x6973 $x5512 $x1806)))))))))))
(assert
 (let (($x4068 (= cell_2_2 9)))
 (let (($x9361 (= cell_2_2 8)))
 (let (($x9474 (= cell_2_2 7)))
 (let (($x4433 (= cell_2_2 6)))
 (let (($x447 (= cell_2_2 5)))
 (let (($x7801 (= cell_2_2 4)))
 (let (($x2818 (= cell_2_2 3)))
 (let (($x894 (= cell_2_2 2)))
 (let (($x5629 (= cell_2_2 1)))
 (or $x5629 $x894 $x2818 $x7801 $x447 $x4433 $x9474 $x9361 $x4068)))))))))))
(assert
 (let (($x4722 (= cell_3_2 1)))
 (or $x4722 (= cell_3_2 2) (= cell_3_2 3) (= cell_3_2 4) (= cell_3_2 5) (= cell_3_2 6) (= cell_3_2 7) (= cell_3_2 8) (= cell_3_2 9))))
(assert
 (let (($x10212 (= cell_4_2 9)))
 (let (($x6576 (= cell_4_2 8)))
 (let (($x3404 (= cell_4_2 7)))
 (let (($x8090 (= cell_4_2 6)))
 (let (($x3444 (= cell_4_2 5)))
 (let (($x2472 (= cell_4_2 4)))
 (let (($x9198 (= cell_4_2 3)))
 (let (($x9323 (= cell_4_2 2)))
 (let (($x1473 (= cell_4_2 1)))
 (or $x1473 $x9323 $x9198 $x2472 $x3444 $x8090 $x3404 $x6576 $x10212)))))))))))
(assert
 (let (($x9196 (= cell_5_2 9)))
 (let (($x366 (= cell_5_2 8)))
 (let (($x229 (= cell_5_2 7)))
 (let (($x8938 (= cell_5_2 6)))
 (let (($x8969 (= cell_5_2 5)))
 (let (($x7736 (= cell_5_2 4)))
 (let (($x1585 (= cell_5_2 3)))
 (let (($x9193 (= cell_5_2 2)))
 (let (($x7967 (= cell_5_2 1)))
 (or $x7967 $x9193 $x1585 $x7736 $x8969 $x8938 $x229 $x366 $x9196)))))))))))
(assert
 (let (($x4982 (= cell_6_2 9)))
 (let (($x842 (= cell_6_2 8)))
 (let (($x9781 (= cell_6_2 7)))
 (let (($x3656 (= cell_6_2 6)))
 (let (($x6500 (= cell_6_2 5)))
 (let (($x9164 (= cell_6_2 4)))
 (let (($x4939 (= cell_6_2 3)))
 (let (($x1057 (= cell_6_2 2)))
 (let (($x9861 (= cell_6_2 1)))
 (or $x9861 $x1057 $x4939 $x9164 $x6500 $x3656 $x9781 $x842 $x4982)))))))))))
(assert
 (let (($x7747 (= cell_7_2 1)))
 (or $x7747 (= cell_7_2 2) (= cell_7_2 3) (= cell_7_2 4) (= cell_7_2 5) (= cell_7_2 6) (= cell_7_2 7) (= cell_7_2 8) (= cell_7_2 9))))
(assert
 (let (($x3419 (= cell_8_2 1)))
 (or $x3419 (= cell_8_2 2) (= cell_8_2 3) (= cell_8_2 4) (= cell_8_2 5) (= cell_8_2 6) (= cell_8_2 7) (= cell_8_2 8) (= cell_8_2 9))))
(assert
 (let (($x8573 (= cell_9_2 1)))
 (or $x8573 (= cell_9_2 2) (= cell_9_2 3) (= cell_9_2 4) (= cell_9_2 5) (= cell_9_2 6) (= cell_9_2 7) (= cell_9_2 8) (= cell_9_2 9))))
(assert
 (let (($x5190 (= cell_1_3 9)))
 (let (($x5627 (= cell_1_3 8)))
 (let (($x5007 (= cell_1_3 7)))
 (let (($x7056 (= cell_1_3 6)))
 (let (($x6395 (= cell_1_3 5)))
 (let (($x2636 (= cell_1_3 4)))
 (let (($x661 (= cell_1_3 3)))
 (let (($x1772 (= cell_1_3 2)))
 (let (($x2378 (= cell_1_3 1)))
 (or $x2378 $x1772 $x661 $x2636 $x6395 $x7056 $x5007 $x5627 $x5190)))))))))))
(assert
 (let (($x6017 (= cell_2_3 9)))
 (let (($x1326 (= cell_2_3 8)))
 (let (($x2351 (= cell_2_3 7)))
 (let (($x3923 (= cell_2_3 6)))
 (let (($x3694 (= cell_2_3 5)))
 (let (($x870 (= cell_2_3 4)))
 (let (($x5289 (= cell_2_3 3)))
 (let (($x9421 (= cell_2_3 2)))
 (let (($x4377 (= cell_2_3 1)))
 (or $x4377 $x9421 $x5289 $x870 $x3694 $x3923 $x2351 $x1326 $x6017)))))))))))
(assert
 (let (($x6120 (= cell_3_3 9)))
 (let (($x614 (= cell_3_3 8)))
 (let (($x6276 (= cell_3_3 7)))
 (let (($x1573 (= cell_3_3 6)))
 (let (($x6643 (= cell_3_3 5)))
 (let (($x6712 (= cell_3_3 4)))
 (let (($x6951 (= cell_3_3 3)))
 (let (($x4124 (= cell_3_3 2)))
 (let (($x8461 (= cell_3_3 1)))
 (or $x8461 $x4124 $x6951 $x6712 $x6643 $x1573 $x6276 $x614 $x6120)))))))))))
(assert
 (let (($x512 (= cell_4_3 9)))
 (let (($x8716 (= cell_4_3 8)))
 (let (($x358 (= cell_4_3 7)))
 (let (($x9688 (= cell_4_3 6)))
 (let (($x8947 (= cell_4_3 5)))
 (let (($x1250 (= cell_4_3 4)))
 (let (($x2718 (= cell_4_3 3)))
 (let (($x1820 (= cell_4_3 2)))
 (let (($x2466 (= cell_4_3 1)))
 (or $x2466 $x1820 $x2718 $x1250 $x8947 $x9688 $x358 $x8716 $x512)))))))))))
(assert
 (let (($x8403 (= cell_5_3 1)))
 (or $x8403 (= cell_5_3 2) (= cell_5_3 3) (= cell_5_3 4) (= cell_5_3 5) (= cell_5_3 6) (= cell_5_3 7) (= cell_5_3 8) (= cell_5_3 9))))
(assert
 (let (($x4017 (= cell_6_3 9)))
 (let (($x7858 (= cell_6_3 8)))
 (let (($x2011 (= cell_6_3 7)))
 (let (($x4112 (= cell_6_3 6)))
 (let (($x8380 (= cell_6_3 5)))
 (let (($x6107 (= cell_6_3 4)))
 (let (($x1082 (= cell_6_3 3)))
 (let (($x9761 (= cell_6_3 2)))
 (let (($x6278 (= cell_6_3 1)))
 (or $x6278 $x9761 $x1082 $x6107 $x8380 $x4112 $x2011 $x7858 $x4017)))))))))))
(assert
 (let (($x2890 (= cell_7_3 1)))
 (or $x2890 (= cell_7_3 2) (= cell_7_3 3) (= cell_7_3 4) (= cell_7_3 5) (= cell_7_3 6) (= cell_7_3 7) (= cell_7_3 8) (= cell_7_3 9))))
(assert
 (let (($x6011 (= cell_8_3 1)))
 (or $x6011 (= cell_8_3 2) (= cell_8_3 3) (= cell_8_3 4) (= cell_8_3 5) (= cell_8_3 6) (= cell_8_3 7) (= cell_8_3 8) (= cell_8_3 9))))
(assert
 (let (($x5260 (= cell_9_3 1)))
 (or $x5260 (= cell_9_3 2) (= cell_9_3 3) (= cell_9_3 4) (= cell_9_3 5) (= cell_9_3 6) (= cell_9_3 7) (= cell_9_3 8) (= cell_9_3 9))))
(assert
 (let (($x4551 (= cell_1_4 9)))
 (let (($x5902 (= cell_1_4 8)))
 (let (($x6165 (= cell_1_4 7)))
 (let (($x3354 (= cell_1_4 6)))
 (let (($x782 (= cell_1_4 5)))
 (let (($x8973 (= cell_1_4 4)))
 (let (($x9384 (= cell_1_4 3)))
 (let (($x1960 (= cell_1_4 2)))
 (let (($x7218 (= cell_1_4 1)))
 (or $x7218 $x1960 $x9384 $x8973 $x782 $x3354 $x6165 $x5902 $x4551)))))))))))
(assert
 (let (($x2467 (= cell_2_4 1)))
 (or $x2467 (= cell_2_4 2) (= cell_2_4 3) (= cell_2_4 4) (= cell_2_4 5) (= cell_2_4 6) (= cell_2_4 7) (= cell_2_4 8) (= cell_2_4 9))))
(assert
 (let (($x301 (= cell_3_4 1)))
 (or $x301 (= cell_3_4 2) (= cell_3_4 3) (= cell_3_4 4) (= cell_3_4 5) (= cell_3_4 6) (= cell_3_4 7) (= cell_3_4 8) (= cell_3_4 9))))
(assert
 (let (($x5960 (= cell_4_4 9)))
 (let (($x1913 (= cell_4_4 8)))
 (let (($x569 (= cell_4_4 7)))
 (let (($x3953 (= cell_4_4 6)))
 (let (($x2912 (= cell_4_4 5)))
 (let (($x4486 (= cell_4_4 4)))
 (let (($x3811 (= cell_4_4 3)))
 (let (($x4914 (= cell_4_4 2)))
 (let (($x2188 (= cell_4_4 1)))
 (or $x2188 $x4914 $x3811 $x4486 $x2912 $x3953 $x569 $x1913 $x5960)))))))))))
(assert
 (let (($x9895 (= cell_5_4 9)))
 (let (($x5832 (= cell_5_4 8)))
 (let (($x8055 (= cell_5_4 7)))
 (let (($x7853 (= cell_5_4 6)))
 (let (($x6774 (= cell_5_4 5)))
 (let (($x7727 (= cell_5_4 4)))
 (let (($x6251 (= cell_5_4 3)))
 (let (($x3160 (= cell_5_4 2)))
 (let (($x6483 (= cell_5_4 1)))
 (or $x6483 $x3160 $x6251 $x7727 $x6774 $x7853 $x8055 $x5832 $x9895)))))))))))
(assert
 (let (($x971 (= cell_6_4 9)))
 (let (($x15 (= cell_6_4 8)))
 (let (($x3523 (= cell_6_4 7)))
 (let (($x8102 (= cell_6_4 6)))
 (let (($x8800 (= cell_6_4 5)))
 (let (($x4147 (= cell_6_4 4)))
 (let (($x1495 (= cell_6_4 3)))
 (let (($x3715 (= cell_6_4 2)))
 (let (($x4849 (= cell_6_4 1)))
 (or $x4849 $x3715 $x1495 $x4147 $x8800 $x8102 $x3523 $x15 $x971)))))))))))
(assert
 (let (($x3027 (= cell_7_4 1)))
 (or $x3027 (= cell_7_4 2) (= cell_7_4 3) (= cell_7_4 4) (= cell_7_4 5) (= cell_7_4 6) (= cell_7_4 7) (= cell_7_4 8) (= cell_7_4 9))))
(assert
 (let (($x8 (= cell_8_4 1)))
 (or $x8 (= cell_8_4 2) (= cell_8_4 3) (= cell_8_4 4) (= cell_8_4 5) (= cell_8_4 6) (= cell_8_4 7) (= cell_8_4 8) (= cell_8_4 9))))
(assert
 (let (($x5250 (= cell_9_4 1)))
 (or $x5250 (= cell_9_4 2) (= cell_9_4 3) (= cell_9_4 4) (= cell_9_4 5) (= cell_9_4 6) (= cell_9_4 7) (= cell_9_4 8) (= cell_9_4 9))))
(assert
 (let (($x1634 (= cell_1_5 9)))
 (let (($x6551 (= cell_1_5 8)))
 (let (($x6616 (= cell_1_5 7)))
 (let (($x5938 (= cell_1_5 6)))
 (let (($x2001 (= cell_1_5 5)))
 (let (($x9573 (= cell_1_5 4)))
 (let (($x5112 (= cell_1_5 3)))
 (let (($x2105 (= cell_1_5 2)))
 (let (($x2978 (= cell_1_5 1)))
 (or $x2978 $x2105 $x5112 $x9573 $x2001 $x5938 $x6616 $x6551 $x1634)))))))))))
(assert
 (let (($x8458 (= cell_2_5 1)))
 (or $x8458 (= cell_2_5 2) (= cell_2_5 3) (= cell_2_5 4) (= cell_2_5 5) (= cell_2_5 6) (= cell_2_5 7) (= cell_2_5 8) (= cell_2_5 9))))
(assert
 (let (($x4212 (= cell_3_5 1)))
 (or $x4212 (= cell_3_5 2) (= cell_3_5 3) (= cell_3_5 4) (= cell_3_5 5) (= cell_3_5 6) (= cell_3_5 7) (= cell_3_5 8) (= cell_3_5 9))))
(assert
 (let (($x1969 (= cell_4_5 9)))
 (let (($x3710 (= cell_4_5 8)))
 (let (($x10083 (= cell_4_5 7)))
 (let (($x2987 (= cell_4_5 6)))
 (let (($x5169 (= cell_4_5 5)))
 (let (($x5355 (= cell_4_5 4)))
 (let (($x269 (= cell_4_5 3)))
 (let (($x5034 (= cell_4_5 2)))
 (let (($x3430 (= cell_4_5 1)))
 (or $x3430 $x5034 $x269 $x5355 $x5169 $x2987 $x10083 $x3710 $x1969)))))))))))
(assert
 (let (($x9437 (= cell_5_5 9)))
 (let (($x10006 (= cell_5_5 8)))
 (let (($x9631 (= cell_5_5 7)))
 (let (($x463 (= cell_5_5 6)))
 (let (($x8023 (= cell_5_5 5)))
 (let (($x5503 (= cell_5_5 4)))
 (let (($x4723 (= cell_5_5 3)))
 (let (($x9231 (= cell_5_5 2)))
 (let (($x1622 (= cell_5_5 1)))
 (or $x1622 $x9231 $x4723 $x5503 $x8023 $x463 $x9631 $x10006 $x9437)))))))))))
(assert
 (let (($x2680 (= cell_6_5 9)))
 (let (($x6803 (= cell_6_5 8)))
 (let (($x7451 (= cell_6_5 7)))
 (let (($x10052 (= cell_6_5 6)))
 (let (($x4098 (= cell_6_5 5)))
 (let (($x4292 (= cell_6_5 4)))
 (let (($x6332 (= cell_6_5 3)))
 (let (($x5300 (= cell_6_5 2)))
 (let (($x6912 (= cell_6_5 1)))
 (or $x6912 $x5300 $x6332 $x4292 $x4098 $x10052 $x7451 $x6803 $x2680)))))))))))
(assert
 (let (($x1963 (= cell_7_5 1)))
 (or $x1963 (= cell_7_5 2) (= cell_7_5 3) (= cell_7_5 4) (= cell_7_5 5) (= cell_7_5 6) (= cell_7_5 7) (= cell_7_5 8) (= cell_7_5 9))))
(assert
 (or (= cell_8_5 1) (= cell_8_5 2) (= cell_8_5 3) (= cell_8_5 4) (= cell_8_5 5) (= cell_8_5 6) (= cell_8_5 7) (= cell_8_5 8) (= cell_8_5 9)))
(assert
 (or (= cell_9_5 1) (= cell_9_5 2) (= cell_9_5 3) (= cell_9_5 4) (= cell_9_5 5) (= cell_9_5 6) (= cell_9_5 7) (= cell_9_5 8) (= cell_9_5 9)))
(assert
 (let (($x3061 (= cell_1_6 9)))
 (let (($x5746 (= cell_1_6 8)))
 (let (($x5103 (= cell_1_6 7)))
 (let (($x4220 (= cell_1_6 6)))
 (let (($x7331 (= cell_1_6 5)))
 (let (($x8324 (= cell_1_6 4)))
 (let (($x6213 (= cell_1_6 3)))
 (let (($x6813 (= cell_1_6 2)))
 (let (($x4278 (= cell_1_6 1)))
 (or $x4278 $x6813 $x6213 $x8324 $x7331 $x4220 $x5103 $x5746 $x3061)))))))))))
(assert
 (let (($x291 (= cell_2_6 9)))
 (let (($x5500 (= cell_2_6 8)))
 (let (($x5763 (= cell_2_6 7)))
 (let (($x8289 (= cell_2_6 6)))
 (let (($x3095 (= cell_2_6 5)))
 (let (($x4913 (= cell_2_6 4)))
 (let (($x3265 (= cell_2_6 3)))
 (let (($x3299 (= cell_2_6 2)))
 (let (($x3728 (= cell_2_6 1)))
 (or $x3728 $x3299 $x3265 $x4913 $x3095 $x8289 $x5763 $x5500 $x291)))))))))))
(assert
 (let (($x1509 (= cell_3_6 9)))
 (let (($x4550 (= cell_3_6 8)))
 (let (($x2871 (= cell_3_6 7)))
 (let (($x7338 (= cell_3_6 6)))
 (let (($x9547 (= cell_3_6 5)))
 (let (($x6521 (= cell_3_6 4)))
 (let (($x3457 (= cell_3_6 3)))
 (let (($x10021 (= cell_3_6 2)))
 (let (($x8825 (= cell_3_6 1)))
 (or $x8825 $x10021 $x3457 $x6521 $x9547 $x7338 $x2871 $x4550 $x1509)))))))))))
(assert
 (let (($x1481 (= cell_4_6 9)))
 (let (($x4473 (= cell_4_6 8)))
 (let (($x9842 (= cell_4_6 7)))
 (let (($x7438 (= cell_4_6 6)))
 (let (($x8410 (= cell_4_6 5)))
 (let (($x181 (= cell_4_6 4)))
 (let (($x5145 (= cell_4_6 3)))
 (let (($x1209 (= cell_4_6 2)))
 (let (($x32 (= cell_4_6 1)))
 (or $x32 $x1209 $x5145 $x181 $x8410 $x7438 $x9842 $x4473 $x1481)))))))))))
(assert
 (let (($x9904 (= cell_5_6 9)))
 (let (($x8687 (= cell_5_6 8)))
 (let (($x79 (= cell_5_6 7)))
 (let (($x33 (= cell_5_6 6)))
 (let (($x9004 (= cell_5_6 5)))
 (let (($x5082 (= cell_5_6 4)))
 (let (($x9118 (= cell_5_6 3)))
 (let (($x1043 (= cell_5_6 2)))
 (let (($x2477 (= cell_5_6 1)))
 (or $x2477 $x1043 $x9118 $x5082 $x9004 $x33 $x79 $x8687 $x9904)))))))))))
(assert
 (let (($x1323 (= cell_6_6 1)))
 (or $x1323 (= cell_6_6 2) (= cell_6_6 3) (= cell_6_6 4) (= cell_6_6 5) (= cell_6_6 6) (= cell_6_6 7) (= cell_6_6 8) (= cell_6_6 9))))
(assert
 (let (($x5594 (= cell_7_6 1)))
 (or $x5594 (= cell_7_6 2) (= cell_7_6 3) (= cell_7_6 4) (= cell_7_6 5) (= cell_7_6 6) (= cell_7_6 7) (= cell_7_6 8) (= cell_7_6 9))))
(assert
 (let (($x739 (= cell_8_6 1)))
 (or $x739 (= cell_8_6 2) (= cell_8_6 3) (= cell_8_6 4) (= cell_8_6 5) (= cell_8_6 6) (= cell_8_6 7) (= cell_8_6 8) (= cell_8_6 9))))
(assert
 (let (($x3161 (= cell_9_6 1)))
 (or $x3161 (= cell_9_6 2) (= cell_9_6 3) (= cell_9_6 4) (= cell_9_6 5) (= cell_9_6 6) (= cell_9_6 7) (= cell_9_6 8) (= cell_9_6 9))))
(assert
 (let (($x908 (= cell_1_7 1)))
 (or $x908 (= cell_1_7 2) (= cell_1_7 3) (= cell_1_7 4) (= cell_1_7 5) (= cell_1_7 6) (= cell_1_7 7) (= cell_1_7 8) (= cell_1_7 9))))
(assert
 (let (($x8701 (= cell_2_7 1)))
 (or $x8701 (= cell_2_7 2) (= cell_2_7 3) (= cell_2_7 4) (= cell_2_7 5) (= cell_2_7 6) (= cell_2_7 7) (= cell_2_7 8) (= cell_2_7 9))))
(assert
 (let (($x2132 (= cell_3_7 9)))
 (let (($x1305 (= cell_3_7 8)))
 (let (($x2481 (= cell_3_7 7)))
 (let (($x6901 (= cell_3_7 6)))
 (let (($x459 (= cell_3_7 5)))
 (let (($x3009 (= cell_3_7 4)))
 (let (($x5401 (= cell_3_7 3)))
 (let (($x8031 (= cell_3_7 2)))
 (let (($x8855 (= cell_3_7 1)))
 (or $x8855 $x8031 $x5401 $x3009 $x459 $x6901 $x2481 $x1305 $x2132)))))))))))
(assert
 (let (($x1932 (= cell_4_7 9)))
 (let (($x8796 (= cell_4_7 8)))
 (let (($x6238 (= cell_4_7 7)))
 (let (($x10148 (= cell_4_7 6)))
 (let (($x5398 (= cell_4_7 5)))
 (let (($x8398 (= cell_4_7 4)))
 (let (($x3597 (= cell_4_7 3)))
 (let (($x2659 (= cell_4_7 2)))
 (let (($x9328 (= cell_4_7 1)))
 (or $x9328 $x2659 $x3597 $x8398 $x5398 $x10148 $x6238 $x8796 $x1932)))))))))))
(assert
 (let (($x8806 (= cell_5_7 1)))
 (or $x8806 (= cell_5_7 2) (= cell_5_7 3) (= cell_5_7 4) (= cell_5_7 5) (= cell_5_7 6) (= cell_5_7 7) (= cell_5_7 8) (= cell_5_7 9))))
(assert
 (let (($x8404 (= cell_6_7 1)))
 (or $x8404 (= cell_6_7 2) (= cell_6_7 3) (= cell_6_7 4) (= cell_6_7 5) (= cell_6_7 6) (= cell_6_7 7) (= cell_6_7 8) (= cell_6_7 9))))
(assert
 (let (($x4856 (= cell_7_7 1)))
 (or $x4856 (= cell_7_7 2) (= cell_7_7 3) (= cell_7_7 4) (= cell_7_7 5) (= cell_7_7 6) (= cell_7_7 7) (= cell_7_7 8) (= cell_7_7 9))))
(assert
 (let (($x1865 (= cell_8_7 1)))
 (or $x1865 (= cell_8_7 2) (= cell_8_7 3) (= cell_8_7 4) (= cell_8_7 5) (= cell_8_7 6) (= cell_8_7 7) (= cell_8_7 8) (= cell_8_7 9))))
(assert
 (let (($x9998 (= cell_9_7 1)))
 (or $x9998 (= cell_9_7 2) (= cell_9_7 3) (= cell_9_7 4) (= cell_9_7 5) (= cell_9_7 6) (= cell_9_7 7) (= cell_9_7 8) (= cell_9_7 9))))
(assert
 (let (($x4058 (= cell_1_8 9)))
 (let (($x7959 (= cell_1_8 8)))
 (let (($x8233 (= cell_1_8 7)))
 (let (($x6155 (= cell_1_8 6)))
 (let (($x3349 (= cell_1_8 5)))
 (let (($x3324 (= cell_1_8 4)))
 (let (($x6894 (= cell_1_8 3)))
 (let (($x8181 (= cell_1_8 2)))
 (let (($x9690 (= cell_1_8 1)))
 (or $x9690 $x8181 $x6894 $x3324 $x3349 $x6155 $x8233 $x7959 $x4058)))))))))))
(assert
 (let (($x451 (= cell_2_8 9)))
 (let (($x3848 (= cell_2_8 8)))
 (let (($x1996 (= cell_2_8 7)))
 (let (($x3369 (= cell_2_8 6)))
 (let (($x9752 (= cell_2_8 5)))
 (let (($x3238 (= cell_2_8 4)))
 (let (($x5683 (= cell_2_8 3)))
 (let (($x3050 (= cell_2_8 2)))
 (let (($x3180 (= cell_2_8 1)))
 (or $x3180 $x3050 $x5683 $x3238 $x9752 $x3369 $x1996 $x3848 $x451)))))))))))
(assert
 (let (($x8006 (= cell_3_8 9)))
 (let (($x2797 (= cell_3_8 8)))
 (let (($x2149 (= cell_3_8 7)))
 (let (($x5999 (= cell_3_8 6)))
 (let (($x369 (= cell_3_8 5)))
 (let (($x6856 (= cell_3_8 4)))
 (let (($x3099 (= cell_3_8 3)))
 (let (($x9823 (= cell_3_8 2)))
 (let (($x1711 (= cell_3_8 1)))
 (or $x1711 $x9823 $x3099 $x6856 $x369 $x5999 $x2149 $x2797 $x8006)))))))))))
(assert
 (let (($x9612 (= cell_4_8 1)))
 (or $x9612 (= cell_4_8 2) (= cell_4_8 3) (= cell_4_8 4) (= cell_4_8 5) (= cell_4_8 6) (= cell_4_8 7) (= cell_4_8 8) (= cell_4_8 9))))
(assert
 (let (($x9446 (= cell_5_8 1)))
 (or $x9446 (= cell_5_8 2) (= cell_5_8 3) (= cell_5_8 4) (= cell_5_8 5) (= cell_5_8 6) (= cell_5_8 7) (= cell_5_8 8) (= cell_5_8 9))))
(assert
 (let (($x669 (= cell_6_8 1)))
 (or $x669 (= cell_6_8 2) (= cell_6_8 3) (= cell_6_8 4) (= cell_6_8 5) (= cell_6_8 6) (= cell_6_8 7) (= cell_6_8 8) (= cell_6_8 9))))
(assert
 (let (($x575 (= cell_7_8 1)))
 (or $x575 (= cell_7_8 2) (= cell_7_8 3) (= cell_7_8 4) (= cell_7_8 5) (= cell_7_8 6) (= cell_7_8 7) (= cell_7_8 8) (= cell_7_8 9))))
(assert
 (let (($x5457 (= cell_8_8 1)))
 (or $x5457 (= cell_8_8 2) (= cell_8_8 3) (= cell_8_8 4) (= cell_8_8 5) (= cell_8_8 6) (= cell_8_8 7) (= cell_8_8 8) (= cell_8_8 9))))
(assert
 (let (($x8524 (= cell_9_8 1)))
 (or $x8524 (= cell_9_8 2) (= cell_9_8 3) (= cell_9_8 4) (= cell_9_8 5) (= cell_9_8 6) (= cell_9_8 7) (= cell_9_8 8) (= cell_9_8 9))))
(assert
 (let (($x6788 (= cell_1_9 1)))
 (or $x6788 (= cell_1_9 2) (= cell_1_9 3) (= cell_1_9 4) (= cell_1_9 5) (= cell_1_9 6) (= cell_1_9 7) (= cell_1_9 8) (= cell_1_9 9))))
(assert
 (let (($x7785 (= cell_2_9 1)))
 (or $x7785 (= cell_2_9 2) (= cell_2_9 3) (= cell_2_9 4) (= cell_2_9 5) (= cell_2_9 6) (= cell_2_9 7) (= cell_2_9 8) (= cell_2_9 9))))
(assert
 (let (($x974 (= cell_3_9 1)))
 (or $x974 (= cell_3_9 2) (= cell_3_9 3) (= cell_3_9 4) (= cell_3_9 5) (= cell_3_9 6) (= cell_3_9 7) (= cell_3_9 8) (= cell_3_9 9))))
(assert
 (let (($x9212 (= cell_4_9 1)))
 (or $x9212 (= cell_4_9 2) (= cell_4_9 3) (= cell_4_9 4) (= cell_4_9 5) (= cell_4_9 6) (= cell_4_9 7) (= cell_4_9 8) (= cell_4_9 9))))
(assert
 (let (($x8828 (= cell_5_9 1)))
 (or $x8828 (= cell_5_9 2) (= cell_5_9 3) (= cell_5_9 4) (= cell_5_9 5) (= cell_5_9 6) (= cell_5_9 7) (= cell_5_9 8) (= cell_5_9 9))))
(assert
 (let (($x3170 (= cell_6_9 1)))
 (or $x3170 (= cell_6_9 2) (= cell_6_9 3) (= cell_6_9 4) (= cell_6_9 5) (= cell_6_9 6) (= cell_6_9 7) (= cell_6_9 8) (= cell_6_9 9))))
(assert
 (or (= cell_7_9 1) (= cell_7_9 2) (= cell_7_9 3) (= cell_7_9 4) (= cell_7_9 5) (= cell_7_9 6) (= cell_7_9 7) (= cell_7_9 8) (= cell_7_9 9)))
(assert
 (or (= cell_8_9 1) (= cell_8_9 2) (= cell_8_9 3) (= cell_8_9 4) (= cell_8_9 5) (= cell_8_9 6) (= cell_8_9 7) (= cell_8_9 8) (= cell_8_9 9)))
(assert
 (or (= cell_9_9 1) (= cell_9_9 2) (= cell_9_9 3) (= cell_9_9 4) (= cell_9_9 5) (= cell_9_9 6) (= cell_9_9 7) (= cell_9_9 8) (= cell_9_9 9)))
(assert
 (and (distinct cell_1_1 cell_1_2 cell_1_3 cell_1_4 cell_1_5 cell_1_6 cell_1_7 cell_1_8 cell_1_9) true))
(assert
 (and (distinct cell_2_1 cell_2_2 cell_2_3 cell_2_4 cell_2_5 cell_2_6 cell_2_7 cell_2_8 cell_2_9) true))
(assert
 (and (distinct cell_3_1 cell_3_2 cell_3_3 cell_3_4 cell_3_5 cell_3_6 cell_3_7 cell_3_8 cell_3_9) true))
(assert
 (and (distinct cell_4_1 cell_4_2 cell_4_3 cell_4_4 cell_4_5 cell_4_6 cell_4_7 cell_4_8 cell_4_9) true))
(assert
 (and (distinct cell_5_1 cell_5_2 cell_5_3 cell_5_4 cell_5_5 cell_5_6 cell_5_7 cell_5_8 cell_5_9) true))
(assert
 (and (distinct cell_6_1 cell_6_2 cell_6_3 cell_6_4 cell_6_5 cell_6_6 cell_6_7 cell_6_8 cell_6_9) true))
(assert
 (and (distinct cell_7_1 cell_7_2 cell_7_3 cell_7_4 cell_7_5 cell_7_6 cell_7_7 cell_7_8 cell_7_9) true))
(assert
 (and (distinct cell_8_1 cell_8_2 cell_8_3 cell_8_4 cell_8_5 cell_8_6 cell_8_7 cell_8_8 cell_8_9) true))
(assert
 (and (distinct cell_9_1 cell_9_2 cell_9_3 cell_9_4 cell_9_5 cell_9_6 cell_9_7 cell_9_8 cell_9_9) true))
(assert
 (and (distinct cell_1_1 cell_2_1 cell_3_1 cell_4_1 cell_5_1 cell_6_1 cell_7_1 cell_8_1 cell_9_1) true))
(assert
 (and (distinct cell_1_2 cell_2_2 cell_3_2 cell_4_2 cell_5_2 cell_6_2 cell_7_2 cell_8_2 cell_9_2) true))
(assert
 (and (distinct cell_1_3 cell_2_3 cell_3_3 cell_4_3 cell_5_3 cell_6_3 cell_7_3 cell_8_3 cell_9_3) true))
(assert
 (and (distinct cell_1_4 cell_2_4 cell_3_4 cell_4_4 cell_5_4 cell_6_4 cell_7_4 cell_8_4 cell_9_4) true))
(assert
 (and (distinct cell_1_5 cell_2_5 cell_3_5 cell_4_5 cell_5_5 cell_6_5 cell_7_5 cell_8_5 cell_9_5) true))
(assert
 (and (distinct cell_1_6 cell_2_6 cell_3_6 cell_4_6 cell_5_6 cell_6_6 cell_7_6 cell_8_6 cell_9_6) true))
(assert
 (and (distinct cell_1_7 cell_2_7 cell_3_7 cell_4_7 cell_5_7 cell_6_7 cell_7_7 cell_8_7 cell_9_7) true))
(assert
 (and (distinct cell_1_8 cell_2_8 cell_3_8 cell_4_8 cell_5_8 cell_6_8 cell_7_8 cell_8_8 cell_9_8) true))
(assert
 (and (distinct cell_1_9 cell_2_9 cell_3_9 cell_4_9 cell_5_9 cell_6_9 cell_7_9 cell_8_9 cell_9_9) true))
(assert
 (and (distinct cell_1_1 cell_1_2 cell_1_3 cell_2_1 cell_2_2 cell_2_3 cell_3_1 cell_3_2 cell_3_3) true))
(assert
 (and (distinct cell_1_4 cell_1_5 cell_1_6 cell_2_4 cell_2_5 cell_2_6 cell_3_4 cell_3_5 cell_3_6) true))
(assert
 (and (distinct cell_1_7 cell_1_8 cell_1_9 cell_2_7 cell_2_8 cell_2_9 cell_3_7 cell_3_8 cell_3_9) true))
(assert
 (and (distinct cell_4_1 cell_4_2 cell_4_3 cell_5_1 cell_5_2 cell_5_3 cell_6_1 cell_6_2 cell_6_3) true))
(assert
 (and (distinct cell_4_4 cell_4_5 cell_4_6 cell_5_4 cell_5_5 cell_5_6 cell_6_4 cell_6_5 cell_6_6) true))
(assert
 (and (distinct cell_4_7 cell_4_8 cell_4_9 cell_5_7 cell_5_8 cell_5_9 cell_6_7 cell_6_8 cell_6_9) true))
(assert
 (and (distinct cell_7_1 cell_7_2 cell_7_3 cell_8_1 cell_8_2 cell_8_3 cell_9_1 cell_9_2 cell_9_3) true))
(assert
 (and (distinct cell_7_4 cell_7_5 cell_7_6 cell_8_4 cell_8_5 cell_8_6 cell_9_4 cell_9_5 cell_9_6) true))
(assert
 (and (distinct cell_7_7 cell_7_8 cell_7_9 cell_8_7 cell_8_8 cell_8_9 cell_9_7 cell_9_8 cell_9_9) true))
(assert
 (let (($x6398 (and (distinct cell_5_9 cell_6_8 cell_7_7 cell_8_6) true)))
 (let (($x3401 (and (distinct cell_2_9 cell_3_8 cell_4_7 cell_5_6 cell_6_5 cell_7_4 cell_8_3 cell_9_2) true)))
 (let (($x1784 (and (distinct cell_1_8 cell_2_7 cell_3_6 cell_4_5 cell_5_4 cell_6_3 cell_7_2 cell_8_1) true)))
 (let (($x9749 (and (distinct cell_1_5 cell_2_4 cell_3_3 cell_4_2) true)))
 (let (($x5221 (and (distinct cell_5_1 cell_6_2 cell_7_3 cell_8_4) true)))
 (let (($x4061 (and (distinct cell_2_1 cell_3_2 cell_4_3 cell_5_4 cell_6_5 cell_7_6 cell_8_7 cell_9_8) true)))
 (let (($x5604 (and (distinct cell_1_2 cell_2_3 cell_3_4 cell_4_5 cell_5_6 cell_6_7 cell_7_8 cell_8_9) true)))
 (let (($x5527 (and (distinct cell_1_5 cell_2_6 cell_3_7 cell_4_8) true)))
 (and $x5527 $x5604 $x4061 $x5221 $x9749 $x1784 $x3401 $x6398))))))))))
(assert
 (= cell_7_5 1))
(check-sat)
